NAME: rand_0/map8_180
TYPE: TSP
COMMENT: autogenerated using a wonderful map creator
DIMENSION: 210
EDGE_WEIGHT_TYPE: EUC_2D
NODE_COORD_SECTION
1 2.0 3.0
2 7.0 3.0
3 13.0 58.0
4 2.0 4.0
5 60.0 22.0
6 1.0 5.0
7 4.0 3.0
8 11.0 61.0
9 61.0 18.0
10 41.0 57.0
11 43.0 63.0
12 16.0 62.0
13 4.0 6.0
14 5.0 4.0
15 5.0 7.0
16 59.0 24.0
17 1.0 2.0
18 43.0 62.0
19 45.0 63.0
20 61.0 22.0
21 15.0 61.0
22 9.0 60.0
23 11.0 63.0
24 13.0 57.0
25 41.0 59.0
26 62.0 19.0
27 1.0 4.0
28 9.0 57.0
29 58.0 23.0
30 42.0 63.0
31 57.0 22.0
32 59.0 19.0
33 13.0 63.0
34 63.0 23.0
35 7.0 4.0
36 12.0 57.0
37 59.0 21.0
38 3.0 7.0
39 46.0 58.0
40 44.0 57.0
41 4.0 2.0
42 45.0 60.0
43 41.0 63.0
44 41.0 62.0
45 12.0 60.0
46 1.0 1.0
47 42.0 57.0
48 14.0 59.0
49 5.0 8.0
50 15.0 58.0
51 61.0 21.0
52 10.0 59.0
53 59.0 23.0
54 61.0 17.0
55 44.0 59.0
56 42.0 62.0
57 7.0 1.0
58 6.0 5.0
59 58.0 17.0
60 10.0 63.0
61 60.0 53.0
62 10.0 34.0
63 15.0 30.0
64 53.0 14.0
65 18.0 26.0
66 52.0 58.0
67 17.0 58.0
68 15.0 39.0
69 44.0 54.0
70 10.0 52.0
71 54.0 22.0
72 20.0 20.0
73 10.0 6.0
74 12.0 25.0
75 39.0 42.0
76 57.0 2.0
77 17.0 30.0
78 21.0 55.0
79 59.0 48.0
80 25.0 25.0
81 55.0 4.0
82 4.0 57.0
83 39.0 17.0
84 52.0 51.0
85 59.0 11.0
86 37.0 63.0
87 39.0 35.0
88 20.0 31.0
89 6.0 41.0
90 3.0 42.0
91 5.0 39.0
92 55.0 43.0
93 33.0 31.0
94 44.0 31.0
95 18.0 21.0
96 1.0 35.0
97 44.0 49.0
98 38.0 39.0
99 31.0 33.0
100 39.0 46.0
101 29.0 45.0
102 20.0 42.0
103 5.0 23.0
104 21.0 41.0
105 54.0 44.0
106 41.0 28.0
107 35.0 30.0
108 42.0 45.0
109 7.0 23.0
110 9.0 42.0
111 14.0 1.0
112 46.0 36.0
113 9.0 51.0
114 2.0 45.0
115 23.0 22.0
116 3.0 19.0
117 38.0 50.0
118 37.0 30.0
119 43.0 9.0
120 35.0 60.0
121 59.0 27.0
122 62.0 53.0
123 27.0 31.0
124 43.0 27.0
125 17.0 39.0
126 33.0 44.0
127 39.0 23.0
128 46.0 38.0
129 21.0 27.0
130 51.0 6.0
131 50.0 17.0
132 14.0 30.0
133 18.0 55.0
134 30.0 20.0
135 15.0 13.0
136 47.0 45.0
137 44.0 28.0
138 28.0 41.0
139 20.0 3.0
140 45.0 11.0
141 31.0 21.0
142 58.0 5.0
143 2.0 49.0
144 29.0 33.0
145 12.0 17.0
146 10.0 1.0
147 43.0 13.0
148 1.0 62.0
149 26.0 61.0
150 18.0 57.0
151 33.0 21.0
152 11.0 18.0
153 54.0 53.0
154 11.0 36.0
155 3.0 62.0
156 13.0 39.0
157 29.0 35.0
158 50.0 3.0
159 46.0 51.0
160 33.0 51.0
161 55.0 35.0
162 4.0 33.0
163 13.0 11.0
164 2.0 63.0
165 22.0 41.0
166 37.0 39.0
167 30.0 42.0
168 46.0 26.0
169 15.0 20.0
170 9.0 50.0
171 55.0 10.0
172 35.0 41.0
173 52.0 57.0
174 61.0 5.0
175 49.0 49.0
176 15.0 47.0
177 55.0 28.0
178 58.0 27.0
179 62.0 34.0
180 17.0 20.0
181 34.0 36.0
182 18.0 61.0
183 54.0 57.0
184 28.0 47.0
185 30.0 44.0
186 6.0 10.0
187 22.0 6.0
188 21.0 63.0
189 15.0 31.0
190 35.0 43.0
191 52.0 59.0
192 55.0 21.0
193 4.0 19.0
194 45.0 20.0
195 36.0 17.0
196 28.0 13.0
197 27.0 23.0
198 25.0 5.0
199 30.0 19.0
200 63.0 62.0
201 5.0 38.0
202 58.0 41.0
203 35.0 36.0
204 10.0 46.0
205 1.0 43.0
206 59.0 12.0
207 26.0 51.0
208 53.0 35.0
209 46.0 5.0
210 9.0 20.0
211 11.0 17.0
212 57.0 14.0
213 20.0 13.0
214 9.0 47.0
215 61.0 2.0
216 62.0 31.0
217 55.0 25.0
218 30.0 5.0
219 9.0 4.0
220 53.0 37.0
221 36.0 30.0
222 30.0 23.0
223 15.0 1.0
224 31.0 52.0
225 14.0 45.0
226 31.0 61.0
227 49.0 21.0
228 23.0 2.0
229 35.0 31.0
230 36.0 60.0
231 18.0 42.0
232 10.0 13.0
233 63.0 50.0
234 20.0 45.0
235 19.0 25.0
236 28.0 28.0
237 2.0 9.0
238 29.0 2.0
239 12.0 50.0
240 11.0 30.0
START_DEPOT_SECTION
1
2
3
4
5
6
7
8
9
10
11
12
13
14
15
16
17
18
19
20
21
22
23
24
25
26
27
28
29
30
-1
END_DEPOT_SECTION
31
32
33
34
35
36
37
38
39
40
41
42
43
44
45
46
47
48
49
50
51
52
53
54
55
56
57
58
59
60
-1
EOF
